NQueen-Task1/Output_Task1/6.txt
sat
((q_0_0 false))
((q_0_1 false))
((q_0_2 true))
((q_0_3 false))
((q_0_4 false))
((q_0_5 false))
((q_1_0 false))
((q_1_1 false))
((q_1_2 false))
((q_1_3 false))
((q_1_4 false))
((q_1_5 true))
((q_2_0 false))
((q_2_1 true))
((q_2_2 false))
((q_2_3 false))
((q_2_4 false))
((q_2_5 false))
((q_3_0 false))
((q_3_1 false))
((q_3_2 false))
((q_3_3 false))
((q_3_4 true))
((q_3_5 false))
((q_4_0 true))
((q_4_1 false))
((q_4_2 false))
((q_4_3 false))
((q_4_4 false))
((q_4_5 false))
((q_5_0 false))
((q_5_1 false))
((q_5_2 false))
((q_5_3 true))
((q_5_4 false))
((q_5_5 false))
